
******************************************************************************
This program contains Ipopt, a library for large-scale nonlinear optimization.
 Ipopt is released as open source code under the Eclipse Public License (EPL).
         For more information visit http://projects.coin-or.org/Ipopt
******************************************************************************

This is Ipopt version 3.12.6, running with linear solver ma57.

Number of nonzeros in equality constraint Jacobian...:        0
Number of nonzeros in inequality constraint Jacobian.:        0
Number of nonzeros in Lagrangian Hessian.............:    26209

Total number of variables............................:     5329
                     variables with only lower bounds:        0
                variables with lower and upper bounds:        0
                     variables with only upper bounds:        0
Total number of equality constraints.................:        0
Total number of inequality constraints...............:        0
        inequality constraints with only lower bounds:        0
   inequality constraints with lower and upper bounds:        0
        inequality constraints with only upper bounds:        0

iter    objective    inf_pr   inf_du lg(mu)  ||d||  lg(rg) alpha_du alpha_pr  ls
   0  2.8458331e+01 0.00e+00 2.35e-02  -1.0 0.00e+00    -  0.00e+00 0.00e+00   0
   1  2.4974637e+01 0.00e+00 2.73e-02  -3.8 1.35e+04    -  1.00e+00 9.77e-04f 11
   2  2.3178035e+01 0.00e+00 2.45e-02  -3.8 1.90e+02    -  1.00e+00 6.25e-02f  5
   3  1.2632164e+01 0.00e+00 3.10e-02  -3.8 1.92e+01    -  1.00e+00 5.00e-01f  2
   4  1.2568666e+01 0.00e+00 3.19e-02  -3.8 3.54e+01    -  1.00e+00 1.25e-01f  4
   5  1.2252055e+01 0.00e+00 3.25e-02  -3.8 1.47e+03    -  1.00e+00 1.95e-03f 10
   6  1.2151765e+01 0.00e+00 2.96e-02  -3.8 8.16e+01    -  1.00e+00 1.56e-02f  7
   7  1.1969146e+01 0.00e+00 3.07e-02  -3.8 2.41e+01    -  1.00e+00 1.25e-01f  4
   8  1.1894254e+01 0.00e+00 3.07e-02  -3.8 2.21e+02    -  1.00e+00 1.56e-02f  7
   9  1.1677097e+01 0.00e+00 3.00e-02  -3.8 1.11e+03    -  1.00e+00 1.95e-03f 10
iter    objective    inf_pr   inf_du lg(mu)  ||d||  lg(rg) alpha_du alpha_pr  ls
  10  1.1154771e+01 0.00e+00 3.03e-02  -3.8 1.90e+01    -  1.00e+00 1.25e-01f  4
  11  2.3000131e+01 0.00e+00 3.67e-02  -3.8 1.69e+01    -  1.00e+00 1.00e+00w  1
  12  3.4416237e+04 0.00e+00 3.78e-02  -3.8 5.65e+04    -  1.00e+00 1.00e+00w  1
  13  6.8036252e+10 0.00e+00 3.78e-02  -3.8 1.24e+11    -  1.00e+00 1.00e+00w  1
  14  1.1014673e+01 0.00e+00 3.39e-02  -3.8 3.78e+02  -4.0 1.00e+00 2.50e-01f  2
  15  1.0458119e+01 0.00e+00 3.23e-02  -3.8 1.85e+02    -  1.00e+00 1.56e-02f  7
  16  1.0298525e+01 0.00e+00 3.19e-02  -3.8 9.33e+01    -  1.00e+00 3.12e-02f  6
  17  1.0123572e+01 0.00e+00 3.53e-02  -3.8 1.38e+02    -  1.00e+00 1.56e-02f  7
  18  1.0055161e+01 0.00e+00 3.17e-02  -3.8 6.44e+01    -  1.00e+00 3.12e-02f  6
  19  1.0041286e+01 0.00e+00 3.42e-02  -3.8 1.12e+02    -  1.00e+00 3.12e-02f  6
iter    objective    inf_pr   inf_du lg(mu)  ||d||  lg(rg) alpha_du alpha_pr  ls
  20  9.8524670e+00 0.00e+00 3.33e-02  -3.8 2.18e+02    -  1.00e+00 1.56e-02f  7
  21  9.7607940e+00 0.00e+00 3.34e-02  -3.8 5.30e+01    -  1.00e+00 6.25e-02f  5
  22  9.7239481e+00 0.00e+00 3.25e-02  -3.8 2.92e+02    -  1.00e+00 1.56e-02f  7
  23  9.5966912e+00 0.00e+00 3.41e-02  -3.8 2.43e+03    -  1.00e+00 9.77e-04f 11
  24  1.1870343e+01 0.00e+00 3.80e-02  -3.8 3.71e+00    -  1.00e+00 1.00e+00w  1
  25  3.4448659e+02 0.00e+00 3.81e-02  -3.8 3.33e+02    -  1.00e+00 1.00e+00w  1
  26  1.0025082e+07 0.00e+00 3.81e-02  -3.8 1.13e+07    -  1.00e+00 1.00e+00w  1
  27  9.4699953e+00 0.00e+00 3.69e-02  -3.8 5.07e+16    -  1.00e+00 5.00e-01f  1
  28  9.4499641e+00 0.00e+00 3.72e-02  -3.8 7.38e+01    -  1.00e+00 3.12e-02f  6
  29  9.3935073e+00 0.00e+00 3.33e-02  -3.8 1.87e+02    -  1.00e+00 1.56e-02f  7
iter    objective    inf_pr   inf_du lg(mu)  ||d||  lg(rg) alpha_du alpha_pr  ls
  30  9.3493403e+00 0.00e+00 3.31e-02  -3.8 3.16e+02    -  1.00e+00 7.81e-03f  8
  31  9.3104053e+00 0.00e+00 3.25e-02  -3.8 9.57e+01    -  1.00e+00 1.56e-02f  7
  32  9.2950773e+00 0.00e+00 3.06e-02  -3.8 2.94e+01    -  1.00e+00 6.25e-02f  5
  33  9.2358268e+00 0.00e+00 2.85e-02  -3.8 7.28e+02    -  1.00e+00 1.95e-03f 10
  34  9.1144953e+00 0.00e+00 2.70e-02  -3.8 1.65e+00    -  1.00e+00 5.00e-01f  2
  35  9.1088731e+00 0.00e+00 3.11e-02  -3.8 2.11e+00    -  1.00e+00 5.00e-01f  2
  36  9.0621117e+00 0.00e+00 3.39e-02  -3.8 3.57e+01    -  1.00e+00 3.12e-02f  6
  37  9.0442112e+00 0.00e+00 3.17e-02  -3.8 1.72e+01    -  1.00e+00 3.12e-02f  6
  38  9.2205719e+00 0.00e+00 3.39e-02  -3.8 1.73e+00    -  1.00e+00 1.00e+00w  1
  39  4.9469956e+01 0.00e+00 3.66e-02  -3.8 2.53e+02    -  1.00e+00 1.00e+00w  1
iter    objective    inf_pr   inf_du lg(mu)  ||d||  lg(rg) alpha_du alpha_pr  ls
  40  1.1292205e+05 0.00e+00 3.71e-02  -3.8 7.45e+05    -  1.00e+00 1.00e+00w  1
  41  9.0420528e+00 0.00e+00 2.71e-02  -3.8 9.75e+12    -  1.00e+00 2.50e-01f  2
  42  9.0253887e+00 0.00e+00 2.45e-02  -3.8 2.92e+00    -  1.00e+00 1.25e-01f  4
  43  9.0219383e+00 0.00e+00 3.37e-02  -3.8 3.35e-01    -  1.00e+00 1.00e+00f  1
  44  9.0194764e+00 0.00e+00 3.39e-02  -3.8 3.66e+00    -  1.00e+00 1.25e-01f  4
  45  9.0082329e+00 0.00e+00 1.51e-02  -3.8 2.79e+00    -  1.00e+00 1.25e-01f  4
  46  9.0023161e+00 0.00e+00 5.16e-03  -3.8 1.66e-01    -  1.00e+00 1.00e+00f  1
  47  9.0006305e+00 0.00e+00 1.96e-03  -3.8 1.07e-01    -  1.00e+00 1.00e+00f  1
  48  9.0001278e+00 0.00e+00 9.30e-04  -3.8 7.60e-02    -  1.00e+00 1.00e+00f  1
  49  9.0000082e+00 0.00e+00 2.60e-04  -5.7 4.60e-02    -  1.00e+00 1.00e+00f  1
iter    objective    inf_pr   inf_du lg(mu)  ||d||  lg(rg) alpha_du alpha_pr  ls
  50  9.0000000e+00 0.00e+00 2.60e-05  -5.7 1.51e-02    -  1.00e+00 1.00e+00f  1
  51  9.0000000e+00 0.00e+00 1.49e-07  -5.7 9.55e-04    -  1.00e+00 1.00e+00f  1
  52  9.0000000e+00 0.00e+00 4.08e-12  -8.6 4.21e-06    -  1.00e+00 1.00e+00f  1

Number of Iterations....: 52

                                   (scaled)                 (unscaled)
Objective...............:   8.9999999758675422e+00    8.9999999758675422e+00
Dual infeasibility......:   4.0785898963724421e-12    4.0785898963724421e-12
Constraint violation....:   0.0000000000000000e+00    0.0000000000000000e+00
Complementarity.........:   0.0000000000000000e+00    0.0000000000000000e+00
Overall NLP error.......:   4.0785898963724421e-12    4.0785898963724421e-12


Number of objective function evaluations             = 351
Number of objective gradient evaluations             = 53
Number of equality constraint evaluations            = 0
Number of inequality constraint evaluations          = 0
Number of equality constraint Jacobian evaluations   = 0
Number of inequality constraint Jacobian evaluations = 0
Number of Lagrangian Hessian evaluations             = 52
Total CPU secs in IPOPT (w/o function evaluations)   =      0.510
Total CPU secs in NLP function evaluations           =      0.333

EXIT: Optimal Solution Found.
Note: The following floating-point exceptions are signalling: IEEE_UNDERFLOW_FLAG IEEE_DENORMAL

 ** SUBROUTINE CUTEST_csetup: Warning. The problem has no general constraints. 
 ** Other tools may be preferable ** 

************************ CUTEst statistics ************************


 Package used            :  IPOPT
 Problem                 :  LMINSURF  
 # variables             =            5625
 # constraints           =               0
 # objective functions   =        0.4050000E+03
 # objective gradients   =        0.5400000E+02
 # objective Hessians    =        0.5300000E+02
 # Hessian-vector prdct  =        0.0000000E+00
 # constraints functions =        0.0000000E+00
 # constraints gradients =        0.0000000E+00
 # constraints Hessians  =        0.0000000E+00
 Exit code               =               0
 Final f                 =   0.9000000E+01
 Set up time             =            0.08 seconds
 Solve time              =            0.96 seconds


******************************************************************

System Time =       0.8429999948 s.
